38254 39488 
37439 39730 
36673 39842 
38016 39543 
37810 39648 
37515 39717 
37884 39610 
36557 39869 
37370 39752 
37985 39558 
35791 39981 
38900 39178 
36827 39841 
36957 39815 
38768 39245 
36488 39891 
36075 39954 
36624 39845 
39384 38935 
